\ Model QML_Assignment1_JobvanWitsen
\ LP format - for model browsing. Use MPS format to capture full model detail.
Minimize
  800 y[0,0,0] + 1010 y[0,0,1] + 800 y[0,1,0] + 1010 y[0,1,1] + 800 y[0,2,0]
   + 1010 y[0,2,1] + 800 y[0,3,0] + 1010 y[0,3,1] + 800 y[0,4,0]
   + 1010 y[0,4,1] + 800 y[0,5,0] + 1010 y[0,5,1] + 800 y[0,6,0]
   + 1010 y[0,6,1] + 800 y[0,7,0] + 1010 y[0,7,1] + 800 y[0,8,0]
   + 1010 y[0,8,1] + 800 y[0,9,0] + 1010 y[0,9,1] + 800 y[0,10,0]
   + 1010 y[0,10,1] + 800 y[0,11,0] + 1010 y[0,11,1] + 1500 y[1,0,0]
   + 1000 y[1,0,1] + 1500 y[1,1,0] + 1000 y[1,1,1] + 1500 y[1,2,0]
   + 1000 y[1,2,1] + 1500 y[1,3,0] + 1000 y[1,3,1] + 1500 y[1,4,0]
   + 1000 y[1,4,1] + 1500 y[1,5,0] + 1000 y[1,5,1] + 1500 y[1,6,0]
   + 1000 y[1,6,1] + 1500 y[1,7,0] + 1000 y[1,7,1] + 1500 y[1,8,0]
   + 1000 y[1,8,1] + 1500 y[1,9,0] + 1000 y[1,9,1] + 1500 y[1,10,0]
   + 1000 y[1,10,1] + 1500 y[1,11,0] + 1000 y[1,11,1] + 500 y[2,0,0]
   + 1000 y[2,0,1] + 500 y[2,1,0] + 1000 y[2,1,1] + 500 y[2,2,0]
   + 1000 y[2,2,1] + 500 y[2,3,0] + 1000 y[2,3,1] + 500 y[2,4,0]
   + 1000 y[2,4,1] + 500 y[2,5,0] + 1000 y[2,5,1] + 500 y[2,6,0]
   + 1000 y[2,6,1] + 500 y[2,7,0] + 1000 y[2,7,1] + 500 y[2,8,0]
   + 1000 y[2,8,1] + 500 y[2,9,0] + 1000 y[2,9,1] + 500 y[2,10,0]
   + 1000 y[2,10,1] + 500 y[2,11,0] + 1000 y[2,11,1]
Subject To
 R0: - x[0,0,2] + x[0,0,3] + y[0,0,0] = 0
 R1: - x[0,1,2] + x[0,1,3] - y[0,0,0] + y[0,1,0] = 0
 R2: - x[0,2,2] + x[0,2,3] - y[0,1,0] + y[0,2,0] = 0
 R3: - x[0,3,2] + x[0,3,3] - y[0,2,0] + y[0,3,0] = 0
 R4: - x[0,4,2] + x[0,4,3] - y[0,3,0] + y[0,4,0] = 0
 R5: - x[0,5,2] + x[0,5,3] - y[0,4,0] + y[0,5,0] = 0
 R6: - x[0,6,2] + x[0,6,3] - y[0,5,0] + y[0,6,0] = 0
 R7: - x[0,7,2] + x[0,7,3] - y[0,6,0] + y[0,7,0] = 0
 R8: - x[0,8,2] + x[0,8,3] - y[0,7,0] + y[0,8,0] = 0
 R9: - x[0,9,2] + x[0,9,3] - y[0,8,0] + y[0,9,0] = 0
 R10: - x[0,10,2] + x[0,10,3] - y[0,9,0] + y[0,10,0] = 0
 R11: - x[0,11,2] + x[0,11,3] - y[0,10,0] + y[0,11,0] = 0
 R12: - x[1,0,2] + x[1,0,3] + y[1,0,0] = 0
 R13: - x[1,1,2] + x[1,1,3] - y[1,0,0] + y[1,1,0] = 0
 R14: - x[1,2,2] + x[1,2,3] - y[1,1,0] + y[1,2,0] = 0
 R15: - x[1,3,2] + x[1,3,3] - y[1,2,0] + y[1,3,0] = 0
 R16: - x[1,4,2] + x[1,4,3] - y[1,3,0] + y[1,4,0] = 0
 R17: - x[1,5,2] + x[1,5,3] - y[1,4,0] + y[1,5,0] = 0
 R18: - x[1,6,2] + x[1,6,3] - y[1,5,0] + y[1,6,0] = 0
 R19: - x[1,7,2] + x[1,7,3] - y[1,6,0] + y[1,7,0] = 0
 R20: - x[1,8,2] + x[1,8,3] - y[1,7,0] + y[1,8,0] = 0
 R21: - x[1,9,2] + x[1,9,3] - y[1,8,0] + y[1,9,0] = 0
 R22: - x[1,10,2] + x[1,10,3] - y[1,9,0] + y[1,10,0] = 0
 R23: - x[1,11,2] + x[1,11,3] - y[1,10,0] + y[1,11,0] = 0
 R24: - x[2,0,2] + x[2,0,3] + y[2,0,0] = 0
 R25: - x[2,1,2] + x[2,1,3] - y[2,0,0] + y[2,1,0] = 0
 R26: - x[2,2,2] + x[2,2,3] - y[2,1,0] + y[2,2,0] = 0
 R27: - x[2,3,2] + x[2,3,3] - y[2,2,0] + y[2,3,0] = 0
 R28: - x[2,4,2] + x[2,4,3] - y[2,3,0] + y[2,4,0] = 0
 R29: - x[2,5,2] + x[2,5,3] - y[2,4,0] + y[2,5,0] = 0
 R30: - x[2,6,2] + x[2,6,3] - y[2,5,0] + y[2,6,0] = 0
 R31: - x[2,7,2] + x[2,7,3] - y[2,6,0] + y[2,7,0] = 0
 R32: - x[2,8,2] + x[2,8,3] - y[2,7,0] + y[2,8,0] = 0
 R33: - x[2,9,2] + x[2,9,3] - y[2,8,0] + y[2,9,0] = 0
 R34: - x[2,10,2] + x[2,10,3] - y[2,9,0] + y[2,10,0] = 0
 R35: - x[2,11,2] + x[2,11,3] - y[2,10,0] + y[2,11,0] = 0
 R36: - x[0,0,3] + y[0,0,1] = -10
 R37: - x[0,1,3] - y[0,0,1] + y[0,1,1] = -20
 R38: - x[0,2,3] - y[0,1,1] + y[0,2,1] = -25
 R39: - x[0,3,3] - y[0,2,1] + y[0,3,1] = -30
 R40: - x[0,4,3] - y[0,3,1] + y[0,4,1] = -50
 R41: - x[0,5,3] - y[0,4,1] + y[0,5,1] = -70
 R42: - x[0,6,3] - y[0,5,1] + y[0,6,1] = -10
 R43: - x[0,7,3] - y[0,6,1] + y[0,7,1] = -12
 R44: - x[0,8,3] - y[0,7,1] + y[0,8,1] = -10
 R45: - x[0,9,3] - y[0,8,1] + y[0,9,1] = -300.2
 R46: - x[0,10,3] - y[0,9,1] + y[0,10,1] = -20
 R47: - x[0,11,3] - y[0,10,1] + y[0,11,1] = -14.8
 R48: - x[1,0,3] + y[1,0,1] = -11
 R49: - x[1,1,3] - y[1,0,1] + y[1,1,1] = -13
 R50: - x[1,2,3] - y[1,1,1] + y[1,2,1] = -12
 R51: - x[1,3,3] - y[1,2,1] + y[1,3,1] = -11
 R52: - x[1,4,3] - y[1,3,1] + y[1,4,1] = -10
 R53: - x[1,5,3] - y[1,4,1] + y[1,5,1] = -10
 R54: - x[1,6,3] - y[1,5,1] + y[1,6,1] = -10
 R55: - x[1,7,3] - y[1,6,1] + y[1,7,1] = -12
 R56: - x[1,8,3] - y[1,7,1] + y[1,8,1] = -11
 R57: - x[1,9,3] - y[1,8,1] + y[1,9,1] = -10
 R58: - x[1,10,3] - y[1,9,1] + y[1,10,1] = -50.4
 R59: - x[1,11,3] - y[1,10,1] + y[1,11,1] = -10.6
 R60: - x[2,0,3] + y[2,0,1] = -10
 R61: - x[2,1,3] - y[2,0,1] + y[2,1,1] = -20
 R62: - x[2,2,3] - y[2,1,1] + y[2,2,1] = -50
 R63: - x[2,3,3] - y[2,2,1] + y[2,3,1] = -10
 R64: - x[2,4,3] - y[2,3,1] + y[2,4,1] = -20
 R65: - x[2,5,3] - y[2,4,1] + y[2,5,1] = -50
 R66: - x[2,6,3] - y[2,5,1] + y[2,6,1] = -10
 R67: - x[2,7,3] - y[2,6,1] + y[2,7,1] = -20
 R68: - x[2,8,3] - y[2,7,1] + y[2,8,1] = -50
 R69: - x[2,9,3] - y[2,8,1] + y[2,9,1] = -10
 R70: - x[2,10,3] - y[2,9,1] + y[2,10,1] = -20
 R71: - x[2,11,3] - y[2,10,1] + y[2,11,1] = -55.5
 R72: 0.6 x[0,0,0] + 1.2 x[1,0,0] + 0.5 x[2,0,0] <= 80
 R73: 0.8 x[0,0,1] + 0.5 x[1,0,1] + 0.1 x[2,0,1] <= 100
 R74: 0.1 x[0,0,2] + 2 x[1,0,2] + 0.1 x[2,0,2] <= 100
 R75: 2.5 x[0,0,3] + 2.5 x[1,0,3] + 2.5 x[2,0,3] <= 250
 R76: 0.6 x[0,1,0] + 1.2 x[1,1,0] + 0.5 x[2,1,0] <= 80
 R77: 0.8 x[0,1,1] + 0.5 x[1,1,1] + 0.1 x[2,1,1] <= 100
 R78: 0.1 x[0,1,2] + 2 x[1,1,2] + 0.1 x[2,1,2] <= 100
 R79: 2.5 x[0,1,3] + 2.5 x[1,1,3] + 2.5 x[2,1,3] <= 250
 R80: 0.6 x[0,2,0] + 1.2 x[1,2,0] + 0.5 x[2,2,0] <= 80
 R81: 0.8 x[0,2,1] + 0.5 x[1,2,1] + 0.1 x[2,2,1] <= 100
 R82: 0.1 x[0,2,2] + 2 x[1,2,2] + 0.1 x[2,2,2] <= 100
 R83: 2.5 x[0,2,3] + 2.5 x[1,2,3] + 2.5 x[2,2,3] <= 250
 R84: 0.6 x[0,3,0] + 1.2 x[1,3,0] + 0.5 x[2,3,0] <= 80
 R85: 0.8 x[0,3,1] + 0.5 x[1,3,1] + 0.1 x[2,3,1] <= 100
 R86: 0.1 x[0,3,2] + 2 x[1,3,2] + 0.1 x[2,3,2] <= 100
 R87: 2.5 x[0,3,3] + 2.5 x[1,3,3] + 2.5 x[2,3,3] <= 250
 R88: 0.6 x[0,4,0] + 1.2 x[1,4,0] + 0.5 x[2,4,0] <= 80
 R89: 0.8 x[0,4,1] + 0.5 x[1,4,1] + 0.1 x[2,4,1] <= 100
 R90: 0.1 x[0,4,2] + 2 x[1,4,2] + 0.1 x[2,4,2] <= 100
 R91: 2.5 x[0,4,3] + 2.5 x[1,4,3] + 2.5 x[2,4,3] <= 250
 R92: 0.6 x[0,5,0] + 1.2 x[1,5,0] + 0.5 x[2,5,0] <= 80
 R93: 0.8 x[0,5,1] + 0.5 x[1,5,1] + 0.1 x[2,5,1] <= 100
 R94: 0.1 x[0,5,2] + 2 x[1,5,2] + 0.1 x[2,5,2] <= 100
 R95: 2.5 x[0,5,3] + 2.5 x[1,5,3] + 2.5 x[2,5,3] <= 250
 R96: 0.6 x[0,6,0] + 1.2 x[1,6,0] + 0.5 x[2,6,0] <= 80
 R97: 0.8 x[0,6,1] + 0.5 x[1,6,1] + 0.1 x[2,6,1] <= 100
 R98: 0.1 x[0,6,2] + 2 x[1,6,2] + 0.1 x[2,6,2] <= 100
 R99: 2.5 x[0,6,3] + 2.5 x[1,6,3] + 2.5 x[2,6,3] <= 250
 R100: 0.6 x[0,7,0] + 1.2 x[1,7,0] + 0.5 x[2,7,0] <= 80
 R101: 0.8 x[0,7,1] + 0.5 x[1,7,1] + 0.1 x[2,7,1] <= 100
 R102: 0.1 x[0,7,2] + 2 x[1,7,2] + 0.1 x[2,7,2] <= 100
 R103: 2.5 x[0,7,3] + 2.5 x[1,7,3] + 2.5 x[2,7,3] <= 250
 R104: 0.6 x[0,8,0] + 1.2 x[1,8,0] + 0.5 x[2,8,0] <= 80
 R105: 0.8 x[0,8,1] + 0.5 x[1,8,1] + 0.1 x[2,8,1] <= 100
 R106: 0.1 x[0,8,2] + 2 x[1,8,2] + 0.1 x[2,8,2] <= 100
 R107: 2.5 x[0,8,3] + 2.5 x[1,8,3] + 2.5 x[2,8,3] <= 250
 R108: 0.6 x[0,9,0] + 1.2 x[1,9,0] + 0.5 x[2,9,0] <= 80
 R109: 0.8 x[0,9,1] + 0.5 x[1,9,1] + 0.1 x[2,9,1] <= 100
 R110: 0.1 x[0,9,2] + 2 x[1,9,2] + 0.1 x[2,9,2] <= 100
 R111: 2.5 x[0,9,3] + 2.5 x[1,9,3] + 2.5 x[2,9,3] <= 250
 R112: 0.6 x[0,10,0] + 1.2 x[1,10,0] + 0.5 x[2,10,0] <= 80
 R113: 0.8 x[0,10,1] + 0.5 x[1,10,1] + 0.1 x[2,10,1] <= 100
 R114: 0.1 x[0,10,2] + 2 x[1,10,2] + 0.1 x[2,10,2] <= 100
 R115: 2.5 x[0,10,3] + 2.5 x[1,10,3] + 2.5 x[2,10,3] <= 250
 R116: 0.6 x[0,11,0] + 1.2 x[1,11,0] + 0.5 x[2,11,0] <= 80
 R117: 0.8 x[0,11,1] + 0.5 x[1,11,1] + 0.1 x[2,11,1] <= 100
 R118: 0.1 x[0,11,2] + 2 x[1,11,2] + 0.1 x[2,11,2] <= 100
 R119: 2.5 x[0,11,3] + 2.5 x[1,11,3] + 2.5 x[2,11,3] <= 250
 R120: x[0,0,0] - x[0,0,1] = 0
 R121: x[0,0,1] - x[0,0,2] = 0
 R122: x[0,1,0] - x[0,1,1] = 0
 R123: x[0,1,1] - x[0,1,2] = 0
 R124: x[0,2,0] - x[0,2,1] = 0
 R125: x[0,2,1] - x[0,2,2] = 0
 R126: x[0,3,0] - x[0,3,1] = 0
 R127: x[0,3,1] - x[0,3,2] = 0
 R128: x[0,4,0] - x[0,4,1] = 0
 R129: x[0,4,1] - x[0,4,2] = 0
 R130: x[0,5,0] - x[0,5,1] = 0
 R131: x[0,5,1] - x[0,5,2] = 0
 R132: x[0,6,0] - x[0,6,1] = 0
 R133: x[0,6,1] - x[0,6,2] = 0
 R134: x[0,7,0] - x[0,7,1] = 0
 R135: x[0,7,1] - x[0,7,2] = 0
 R136: x[0,8,0] - x[0,8,1] = 0
 R137: x[0,8,1] - x[0,8,2] = 0
 R138: x[0,9,0] - x[0,9,1] = 0
 R139: x[0,9,1] - x[0,9,2] = 0
 R140: x[0,10,0] - x[0,10,1] = 0
 R141: x[0,10,1] - x[0,10,2] = 0
 R142: x[0,11,0] - x[0,11,1] = 0
 R143: x[0,11,1] - x[0,11,2] = 0
 R144: x[1,0,0] - x[1,0,1] = 0
 R145: x[1,0,1] - x[1,0,2] = 0
 R146: x[1,1,0] - x[1,1,1] = 0
 R147: x[1,1,1] - x[1,1,2] = 0
 R148: x[1,2,0] - x[1,2,1] = 0
 R149: x[1,2,1] - x[1,2,2] = 0
 R150: x[1,3,0] - x[1,3,1] = 0
 R151: x[1,3,1] - x[1,3,2] = 0
 R152: x[1,4,0] - x[1,4,1] = 0
 R153: x[1,4,1] - x[1,4,2] = 0
 R154: x[1,5,0] - x[1,5,1] = 0
 R155: x[1,5,1] - x[1,5,2] = 0
 R156: x[1,6,0] - x[1,6,1] = 0
 R157: x[1,6,1] - x[1,6,2] = 0
 R158: x[1,7,0] - x[1,7,1] = 0
 R159: x[1,7,1] - x[1,7,2] = 0
 R160: x[1,8,0] - x[1,8,1] = 0
 R161: x[1,8,1] - x[1,8,2] = 0
 R162: x[1,9,0] - x[1,9,1] = 0
 R163: x[1,9,1] - x[1,9,2] = 0
 R164: x[1,10,0] - x[1,10,1] = 0
 R165: x[1,10,1] - x[1,10,2] = 0
 R166: x[1,11,0] - x[1,11,1] = 0
 R167: x[1,11,1] - x[1,11,2] = 0
 R168: x[2,0,0] - x[2,0,1] = 0
 R169: x[2,0,1] - x[2,0,2] = 0
 R170: x[2,1,0] - x[2,1,1] = 0
 R171: x[2,1,1] - x[2,1,2] = 0
 R172: x[2,2,0] - x[2,2,1] = 0
 R173: x[2,2,1] - x[2,2,2] = 0
 R174: x[2,3,0] - x[2,3,1] = 0
 R175: x[2,3,1] - x[2,3,2] = 0
 R176: x[2,4,0] - x[2,4,1] = 0
 R177: x[2,4,1] - x[2,4,2] = 0
 R178: x[2,5,0] - x[2,5,1] = 0
 R179: x[2,5,1] - x[2,5,2] = 0
 R180: x[2,6,0] - x[2,6,1] = 0
 R181: x[2,6,1] - x[2,6,2] = 0
 R182: x[2,7,0] - x[2,7,1] = 0
 R183: x[2,7,1] - x[2,7,2] = 0
 R184: x[2,8,0] - x[2,8,1] = 0
 R185: x[2,8,1] - x[2,8,2] = 0
 R186: x[2,9,0] - x[2,9,1] = 0
 R187: x[2,9,1] - x[2,9,2] = 0
 R188: x[2,10,0] - x[2,10,1] = 0
 R189: x[2,10,1] - x[2,10,2] = 0
 R190: x[2,11,0] - x[2,11,1] = 0
 R191: x[2,11,1] - x[2,11,2] = 0
 R192: x[0,1,3] - y[0,0,0] >= 0
 R193: x[0,2,3] - y[0,1,0] >= 0
 R194: x[0,3,3] - y[0,2,0] >= 0
 R195: x[0,4,3] - y[0,3,0] >= 0
 R196: x[0,5,3] - y[0,4,0] >= 0
 R197: x[0,6,3] - y[0,5,0] >= 0
 R198: x[0,7,3] - y[0,6,0] >= 0
 R199: x[0,8,3] - y[0,7,0] >= 0
 R200: x[0,9,3] - y[0,8,0] >= 0
 R201: x[0,10,3] - y[0,9,0] >= 0
 R202: x[0,11,3] - y[0,10,0] >= 0
 R203: x[1,1,3] - y[1,0,0] >= 0
 R204: x[1,2,3] - y[1,1,0] >= 0
 R205: x[1,3,3] - y[1,2,0] >= 0
 R206: x[1,4,3] - y[1,3,0] >= 0
 R207: x[1,5,3] - y[1,4,0] >= 0
 R208: x[1,6,3] - y[1,5,0] >= 0
 R209: x[1,7,3] - y[1,6,0] >= 0
 R210: x[1,8,3] - y[1,7,0] >= 0
 R211: x[1,9,3] - y[1,8,0] >= 0
 R212: x[1,10,3] - y[1,9,0] >= 0
 R213: x[1,11,3] - y[1,10,0] >= 0
 R214: x[2,1,3] - y[2,0,0] >= 0
 R215: x[2,2,3] - y[2,1,0] >= 0
 R216: x[2,3,3] - y[2,2,0] >= 0
 R217: x[2,4,3] - y[2,3,0] >= 0
 R218: x[2,5,3] - y[2,4,0] >= 0
 R219: x[2,6,3] - y[2,5,0] >= 0
 R220: x[2,7,3] - y[2,6,0] >= 0
 R221: x[2,8,3] - y[2,7,0] >= 0
 R222: x[2,9,3] - y[2,8,0] >= 0
 R223: x[2,10,3] - y[2,9,0] >= 0
 R224: x[2,11,3] - y[2,10,0] >= 0
 R225: y[0,11,0] = 0
 R226: y[0,11,1] = 0
 R227: y[1,11,0] = 0
 R228: y[1,11,1] = 0
 R229: y[2,11,0] = 0
 R230: y[2,11,1] = 0
Bounds
End
